1625.0 21145.0 12.0 
1625.0 21145.0 12.0 
1640.0 20907.0 0.0 
1607.0 20904.0 33.0 
1611.0 20678.0 83.0 
1638.0 21108.0 0.0 
1605.0 20489.0 175.0 
1576.0 20710.0 732.0 
1630.0 21168.0 0.0 
1585.0 20526.0 426.0 
1574.0 21331.0 882.0 
1607.0 20904.0 33.0 
1609.0 20894.0 90.0 
1633.0 20959.0 21.0 
1609.0 20770.0 108.0 
1602.0 21375.0 82.0 
1596.0 20594.0 126.0 
1585.0 20526.0 426.0 
1585.0 20526.0 426.0 
1630.0 21108.0 12.0 
